
%FILE DATA:	Soccer Computational Problem for MiniZinc Models	%
%AUTHOR:	Jack Wall	%
%CONTACT:  	116397063@umail.ucc.ie			%
%LAST UPDATE:	03/03/2020, 12:29:48						%
%DESCRIPTION: 	70 games played with 20 games left				%


n=10; %number of teams

%Games to play
games=[|8,1|6,10|7,8|6,8|5,3|9,8|4,1|9,6|9,5|9,1|6,1|10,6|10,8|4,2|7,6|10,5|10,9|6,9|4,10|2,4|];

%Initial points
iPoints=[16,17,20,19,29,18,23,18,18,15];

%POSITION CONSTRAINTS
% [|teamID, operator, position|...]
% operators index:
%  1 for =  operator
%  2 for >  operator
%  3 for >= operator
%  4 for <  operator
%  5 for <= operator
positionConstraints=[|5,5,1|7,3,2|6,3,3|];